mlkem-native/cvc5/polyvec_permute_bitrev_to_custom_harness.smt2
; SMT 2
; Generated for CVC 5
(set-info :source "Generated by CBMC 6.8.0 (n/a)")
(set-logic ALL)

; find_symbols
(declare-fun |__CPROVER_contracts_is_fresh::$tmp::return_value___VERIFIER_nondet___CPROVER_bool$1!0@1#2| () Bool)
; convert
; Converting var_no 0 with expr ID of symbol
(define-fun B0 () Bool |__CPROVER_contracts_is_fresh::$tmp::return_value___VERIFIER_nondet___CPROVER_bool$1!0@1#2|)

; convert
; Converting var_no 1 with expr ID of symbol
(define-fun B1 () Bool |__CPROVER_contracts_is_fresh::$tmp::return_value___VERIFIER_nondet___CPROVER_bool$1!0@1#2|)

; convert
; Converting var_no 2 with expr ID of symbol
(define-fun B2 () Bool |__CPROVER_contracts_is_fresh::$tmp::return_value___VERIFIER_nondet___CPROVER_bool$1!0@1#2|)

; convert
; Converting var_no 3 with expr ID of symbol
(define-fun B3 () Bool |__CPROVER_contracts_is_fresh::$tmp::return_value___VERIFIER_nondet___CPROVER_bool$1!0@1#2|)

(declare-datatypes ((struct.0 0)) (((mk-struct.0 (struct.0.coeffs (Array (_ BitVec 64) (_ BitVec 16))) ))))
(define-fun update-struct.0.coeffs ((s struct.0) (v (Array (_ BitVec 64) (_ BitVec 16)))) struct.0 (mk-struct.0 v ))

(declare-datatypes ((struct.2 0)) (((mk-struct.2 (struct.2.vec (Array (_ BitVec 64) struct.0)) ))))
(define-fun update-struct.2.vec ((s struct.2) (v (Array (_ BitVec 64) struct.0))) struct.2 (mk-struct.2 v ))

; find_symbols
(declare-fun |nondet_symex::nondet0| () struct.2)
; set_to true (equal)
(define-fun |symex_dynamic::dynamic_object$9#1..vec[[0]]..coeffs| () (Array (_ BitVec 64) (_ BitVec 16)) (struct.0.coeffs (select (struct.2.vec |nondet_symex::nondet0|) (_ bv0 64))))

; set_to true (equal)
(define-fun |symex_dynamic::dynamic_object$9#1..vec[[1]]..coeffs| () (Array (_ BitVec 64) (_ BitVec 16)) (struct.0.coeffs (select (struct.2.vec |nondet_symex::nondet0|) (_ bv1 64))))

; set_to true (equal)
(define-fun |symex_dynamic::dynamic_object$9#1..vec[[2]]..coeffs| () (Array (_ BitVec 64) (_ BitVec 16)) (struct.0.coeffs (select (struct.2.vec |nondet_symex::nondet0|) (_ bv2 64))))

; the following is a substitute for an array constructor
(declare-fun array.1 () (Array (_ BitVec 64) struct.0))
(assert (= (select array.1 (_ bv0 64)) (mk-struct.0 |symex_dynamic::dynamic_object$9#1..vec[[0]]..coeffs|)))
(assert (= (select array.1 (_ bv1 64)) (mk-struct.0 |symex_dynamic::dynamic_object$9#1..vec[[1]]..coeffs|)))
(assert (= (select array.1 (_ bv2 64)) (mk-struct.0 |symex_dynamic::dynamic_object$9#1..vec[[2]]..coeffs|)))
; convert
; Converting var_no 4 with expr ID of forall
(declare-fun B4 () Bool)
(assert (= B4 (forall ((|mlk_polyvec_permute_bitrev_to_custom::requires::1::x!0@12#0| (_ BitVec 32))) (or (bvuge |mlk_polyvec_permute_bitrev_to_custom::requires::1::x!0@12#0| (_ bv3 32)) (forall ((|mlk_polyvec_permute_bitrev_to_custom::requires::1::1::_cbmc_idx35!0@12#0| (_ BitVec 32))) (or (bvuge |mlk_polyvec_permute_bitrev_to_custom::requires::1::1::_cbmc_idx35!0@12#0| (_ bv256 32)) (and (bvsge ((_ sign_extend 16) (select (struct.0.coeffs (select array.1 ((_ zero_extend 32) |mlk_polyvec_permute_bitrev_to_custom::requires::1::x!0@12#0|))) ((_ zero_extend 32) |mlk_polyvec_permute_bitrev_to_custom::requires::1::1::_cbmc_idx35!0@12#0|))) (_ bv0 32)) (not (bvsge ((_ sign_extend 16) (select (struct.0.coeffs (select array.1 ((_ zero_extend 32) |mlk_polyvec_permute_bitrev_to_custom::requires::1::x!0@12#0|))) ((_ zero_extend 32) |mlk_polyvec_permute_bitrev_to_custom::requires::1::1::_cbmc_idx35!0@12#0|))) (_ bv3329 32))))))))))

; convert
; Converting var_no 5 with expr ID of not
(define-fun B5 () Bool (not |__CPROVER_contracts_is_fresh::$tmp::return_value___VERIFIER_nondet___CPROVER_bool$1!0@1#2|))

; find_symbols
(declare-fun |symex::args::0| () (_ BitVec 64))
; set_to true (equal)
(define-fun |harness::1::v!0@1#1| () (_ BitVec 64) |symex::args::0|)

(declare-datatypes ((struct.6 0)) (((mk-struct.6 (struct.6.is_writable (_ BitVec 8)) (struct.6.$pad1 (_ BitVec 56)) (struct.6.size (_ BitVec 64)) (struct.6.lb (_ BitVec 64)) (struct.6.ub (_ BitVec 64)) ))))
(define-fun update-struct.6.is_writable ((s struct.6) (v (_ BitVec 8))) struct.6 (mk-struct.6 v (struct.6.$pad1 s) (struct.6.size s) (struct.6.lb s) (struct.6.ub s) ))
(define-fun update-struct.6.$pad1 ((s struct.6) (v (_ BitVec 56))) struct.6 (mk-struct.6 (struct.6.is_writable s) v (struct.6.size s) (struct.6.lb s) (struct.6.ub s) ))
(define-fun update-struct.6.size ((s struct.6) (v (_ BitVec 64))) struct.6 (mk-struct.6 (struct.6.is_writable s) (struct.6.$pad1 s) v (struct.6.lb s) (struct.6.ub s) ))
(define-fun update-struct.6.lb ((s struct.6) (v (_ BitVec 64))) struct.6 (mk-struct.6 (struct.6.is_writable s) (struct.6.$pad1 s) (struct.6.size s) v (struct.6.ub s) ))
(define-fun update-struct.6.ub ((s struct.6) (v (_ BitVec 64))) struct.6 (mk-struct.6 (struct.6.is_writable s) (struct.6.$pad1 s) (struct.6.size s) (struct.6.lb s) v ))

(declare-datatypes ((struct.5 0)) (((mk-struct.5 (struct.5.max_elems (_ BitVec 64)) (struct.5.elems (_ BitVec 64)) ))))
(define-fun update-struct.5.max_elems ((s struct.5) (v (_ BitVec 64))) struct.5 (mk-struct.5 v (struct.5.elems s) ))
(define-fun update-struct.5.elems ((s struct.5) (v (_ BitVec 64))) struct.5 (mk-struct.5 (struct.5.max_elems s) v ))

(declare-datatypes ((struct.9 0)) (((mk-struct.9 (struct.9.max_elems (_ BitVec 64)) (struct.9.watermark (_ BitVec 64)) (struct.9.nof_elems (_ BitVec 64)) (struct.9.is_empty (_ BitVec 8)) (struct.9.indexed_by_object_id (_ BitVec 8)) (struct.9.$pad5 (_ BitVec 48)) (struct.9.elems (_ BitVec 64)) ))))
(define-fun update-struct.9.max_elems ((s struct.9) (v (_ BitVec 64))) struct.9 (mk-struct.9 v (struct.9.watermark s) (struct.9.nof_elems s) (struct.9.is_empty s) (struct.9.indexed_by_object_id s) (struct.9.$pad5 s) (struct.9.elems s) ))
(define-fun update-struct.9.watermark ((s struct.9) (v (_ BitVec 64))) struct.9 (mk-struct.9 (struct.9.max_elems s) v (struct.9.nof_elems s) (struct.9.is_empty s) (struct.9.indexed_by_object_id s) (struct.9.$pad5 s) (struct.9.elems s) ))
(define-fun update-struct.9.nof_elems ((s struct.9) (v (_ BitVec 64))) struct.9 (mk-struct.9 (struct.9.max_elems s) (struct.9.watermark s) v (struct.9.is_empty s) (struct.9.indexed_by_object_id s) (struct.9.$pad5 s) (struct.9.elems s) ))
(define-fun update-struct.9.is_empty ((s struct.9) (v (_ BitVec 8))) struct.9 (mk-struct.9 (struct.9.max_elems s) (struct.9.watermark s) (struct.9.nof_elems s) v (struct.9.indexed_by_object_id s) (struct.9.$pad5 s) (struct.9.elems s) ))
(define-fun update-struct.9.indexed_by_object_id ((s struct.9) (v (_ BitVec 8))) struct.9 (mk-struct.9 (struct.9.max_elems s) (struct.9.watermark s) (struct.9.nof_elems s) (struct.9.is_empty s) v (struct.9.$pad5 s) (struct.9.elems s) ))
(define-fun update-struct.9.$pad5 ((s struct.9) (v (_ BitVec 48))) struct.9 (mk-struct.9 (struct.9.max_elems s) (struct.9.watermark s) (struct.9.nof_elems s) (struct.9.is_empty s) (struct.9.indexed_by_object_id s) v (struct.9.elems s) ))
(define-fun update-struct.9.elems ((s struct.9) (v (_ BitVec 64))) struct.9 (mk-struct.9 (struct.9.max_elems s) (struct.9.watermark s) (struct.9.nof_elems s) (struct.9.is_empty s) (struct.9.indexed_by_object_id s) (struct.9.$pad5 s) v ))

(declare-datatypes ((struct.11 0)) (((mk-struct.11 (struct.11.fresh_car struct.6) (struct.11.ptr_pred (_ BitVec 64)) ))))
(define-fun update-struct.11.fresh_car ((s struct.11) (v struct.6)) struct.11 (mk-struct.11 v (struct.11.ptr_pred s) ))
(define-fun update-struct.11.ptr_pred ((s struct.11) (v (_ BitVec 64))) struct.11 (mk-struct.11 (struct.11.fresh_car s) v ))

(declare-datatypes ((struct.4 0)) (((mk-struct.4 (struct.4.contract_assigns struct.5) (struct.4.contract_frees struct.9) (struct.4.contract_frees_append struct.9) (struct.4.allocated struct.9) (struct.4.deallocated struct.9) (struct.4.linked_ptr_pred_ctx (_ BitVec 64)) (struct.4.linked_allocated (_ BitVec 64)) (struct.4.linked_deallocated (_ BitVec 64)) (struct.4.assume_requires_ctx (_ BitVec 8)) (struct.4.assert_requires_ctx (_ BitVec 8)) (struct.4.assume_ensures_ctx (_ BitVec 8)) (struct.4.assert_ensures_ctx (_ BitVec 8)) (struct.4.allow_allocate (_ BitVec 8)) (struct.4.allow_deallocate (_ BitVec 8)) (struct.4.$pad14 (_ BitVec 16)) ))))
(define-fun update-struct.4.contract_assigns ((s struct.4) (v struct.5)) struct.4 (mk-struct.4 v (struct.4.contract_frees s) (struct.4.contract_frees_append s) (struct.4.allocated s) (struct.4.deallocated s) (struct.4.linked_ptr_pred_ctx s) (struct.4.linked_allocated s) (struct.4.linked_deallocated s) (struct.4.assume_requires_ctx s) (struct.4.assert_requires_ctx s) (struct.4.assume_ensures_ctx s) (struct.4.assert_ensures_ctx s) (struct.4.allow_allocate s) (struct.4.allow_deallocate s) (struct.4.$pad14 s) ))
(define-fun update-struct.4.contract_frees ((s struct.4) (v struct.9)) struct.4 (mk-struct.4 (struct.4.contract_assigns s) v (struct.4.contract_frees_append s) (struct.4.allocated s) (struct.4.deallocated s) (struct.4.linked_ptr_pred_ctx s) (struct.4.linked_allocated s) (struct.4.linked_deallocated s) (struct.4.assume_requires_ctx s) (struct.4.assert_requires_ctx s) (struct.4.assume_ensures_ctx s) (struct.4.assert_ensures_ctx s) (struct.4.allow_allocate s) (struct.4.allow_deallocate s) (struct.4.$pad14 s) ))
(define-fun update-struct.4.contract_frees_append ((s struct.4) (v struct.9)) struct.4 (mk-struct.4 (struct.4.contract_assigns s) (struct.4.contract_frees s) v (struct.4.allocated s) (struct.4.deallocated s) (struct.4.linked_ptr_pred_ctx s) (struct.4.linked_allocated s) (struct.4.linked_deallocated s) (struct.4.assume_requires_ctx s) (struct.4.assert_requires_ctx s) (struct.4.assume_ensures_ctx s) (struct.4.assert_ensures_ctx s) (struct.4.allow_allocate s) (struct.4.allow_deallocate s) (struct.4.$pad14 s) ))
(define-fun update-struct.4.allocated ((s struct.4) (v struct.9)) struct.4 (mk-struct.4 (struct.4.contract_assigns s) (struct.4.contract_frees s) (struct.4.contract_frees_append s) v (struct.4.deallocated s) (struct.4.linked_ptr_pred_ctx s) (struct.4.linked_allocated s) (struct.4.linked_deallocated s) (struct.4.assume_requires_ctx s) (struct.4.assert_requires_ctx s) (struct.4.assume_ensures_ctx s) (struct.4.assert_ensures_ctx s) (struct.4.allow_allocate s) (struct.4.allow_deallocate s) (struct.4.$pad14 s) ))
(define-fun update-struct.4.deallocated ((s struct.4) (v struct.9)) struct.4 (mk-struct.4 (struct.4.contract_assigns s) (struct.4.contract_frees s) (struct.4.contract_frees_append s) (struct.4.allocated s) v (struct.4.linked_ptr_pred_ctx s) (struct.4.linked_allocated s) (struct.4.linked_deallocated s) (struct.4.assume_requires_ctx s) (struct.4.assert_requires_ctx s) (struct.4.assume_ensures_ctx s) (struct.4.assert_ensures_ctx s) (struct.4.allow_allocate s) (struct.4.allow_deallocate s) (struct.4.$pad14 s) ))
(define-fun update-struct.4.linked_ptr_pred_ctx ((s struct.4) (v (_ BitVec 64))) struct.4 (mk-struct.4 (struct.4.contract_assigns s) (struct.4.contract_frees s) (struct.4.contract_frees_append s) (struct.4.allocated s) (struct.4.deallocated s) v (struct.4.linked_allocated s) (struct.4.linked_deallocated s) (struct.4.assume_requires_ctx s) (struct.4.assert_requires_ctx s) (struct.4.assume_ensures_ctx s) (struct.4.assert_ensures_ctx s) (struct.4.allow_allocate s) (struct.4.allow_deallocate s) (struct.4.$pad14 s) ))
(define-fun update-struct.4.linked_allocated ((s struct.4) (v (_ BitVec 64))) struct.4 (mk-struct.4 (struct.4.contract_assigns s) (struct.4.contract_frees s) (struct.4.contract_frees_append s) (struct.4.allocated s) (struct.4.deallocated s) (struct.4.linked_ptr_pred_ctx s) v (struct.4.linked_deallocated s) (struct.4.assume_requires_ctx s) (struct.4.assert_requires_ctx s) (struct.4.assume_ensures_ctx s) (struct.4.assert_ensures_ctx s) (struct.4.allow_allocate s) (struct.4.allow_deallocate s) (struct.4.$pad14 s) ))
(define-fun update-struct.4.linked_deallocated ((s struct.4) (v (_ BitVec 64))) struct.4 (mk-struct.4 (struct.4.contract_assigns s) (struct.4.contract_frees s) (struct.4.contract_frees_append s) (struct.4.allocated s) (struct.4.deallocated s) (struct.4.linked_ptr_pred_ctx s) (struct.4.linked_allocated s) v (struct.4.assume_requires_ctx s) (struct.4.assert_requires_ctx s) (struct.4.assume_ensures_ctx s) (struct.4.assert_ensures_ctx s) (struct.4.allow_allocate s) (struct.4.allow_deallocate s) (struct.4.$pad14 s) ))
(define-fun update-struct.4.assume_requires_ctx ((s struct.4) (v (_ BitVec 8))) struct.4 (mk-struct.4 (struct.4.contract_assigns s) (struct.4.contract_frees s) (struct.4.contract_frees_append s) (struct.4.allocated s) (struct.4.deallocated s) (struct.4.linked_ptr_pred_ctx s) (struct.4.linked_allocated s) (struct.4.linked_deallocated s) v (struct.4.assert_requires_ctx s) (struct.4.assume_ensures_ctx s) (struct.4.assert_ensures_ctx s) (struct.4.allow_allocate s) (struct.4.allow_deallocate s) (struct.4.$pad14 s) ))
(define-fun update-struct.4.assert_requires_ctx ((s struct.4) (v (_ BitVec 8))) struct.4 (mk-struct.4 (struct.4.contract_assigns s) (struct.4.contract_frees s) (struct.4.contract_frees_append s) (struct.4.allocated s) (struct.4.deallocated s) (struct.4.linked_ptr_pred_ctx s) (struct.4.linked_allocated s) (struct.4.linked_deallocated s) (struct.4.assume_requires_ctx s) v (struct.4.assume_ensures_ctx s) (struct.4.assert_ensures_ctx s) (struct.4.allow_allocate s) (struct.4.allow_deallocate s) (struct.4.$pad14 s) ))
(define-fun update-struct.4.assume_ensures_ctx ((s struct.4) (v (_ BitVec 8))) struct.4 (mk-struct.4 (struct.4.contract_assigns s) (struct.4.contract_frees s) (struct.4.contract_frees_append s) (struct.4.allocated s) (struct.4.deallocated s) (struct.4.linked_ptr_pred_ctx s) (struct.4.linked_allocated s) (struct.4.linked_deallocated s) (struct.4.assume_requires_ctx s) (struct.4.assert_requires_ctx s) v (struct.4.assert_ensures_ctx s) (struct.4.allow_allocate s) (struct.4.allow_deallocate s) (struct.4.$pad14 s) ))
(define-fun update-struct.4.assert_ensures_ctx ((s struct.4) (v (_ BitVec 8))) struct.4 (mk-struct.4 (struct.4.contract_assigns s) (struct.4.contract_frees s) (struct.4.contract_frees_append s) (struct.4.allocated s) (struct.4.deallocated s) (struct.4.linked_ptr_pred_ctx s) (struct.4.linked_allocated s) (struct.4.linked_deallocated s) (struct.4.assume_requires_ctx s) (struct.4.assert_requires_ctx s) (struct.4.assume_ensures_ctx s) v (struct.4.allow_allocate s) (struct.4.allow_deallocate s) (struct.4.$pad14 s) ))
(define-fun update-struct.4.allow_allocate ((s struct.4) (v (_ BitVec 8))) struct.4 (mk-struct.4 (struct.4.contract_assigns s) (struct.4.contract_frees s) (struct.4.contract_frees_append s) (struct.4.allocated s) (struct.4.deallocated s) (struct.4.linked_ptr_pred_ctx s) (struct.4.linked_allocated s) (struct.4.linked_deallocated s) (struct.4.assume_requires_ctx s) (struct.4.assert_requires_ctx s) (struct.4.assume_ensures_ctx s) (struct.4.assert_ensures_ctx s) v (struct.4.allow_deallocate s) (struct.4.$pad14 s) ))
(define-fun update-struct.4.allow_deallocate ((s struct.4) (v (_ BitVec 8))) struct.4 (mk-struct.4 (struct.4.contract_assigns s) (struct.4.contract_frees s) (struct.4.contract_frees_append s) (struct.4.allocated s) (struct.4.deallocated s) (struct.4.linked_ptr_pred_ctx s) (struct.4.linked_allocated s) (struct.4.linked_deallocated s) (struct.4.assume_requires_ctx s) (struct.4.assert_requires_ctx s) (struct.4.assume_ensures_ctx s) (struct.4.assert_ensures_ctx s) (struct.4.allow_allocate s) v (struct.4.$pad14 s) ))
(define-fun update-struct.4.$pad14 ((s struct.4) (v (_ BitVec 16))) struct.4 (mk-struct.4 (struct.4.contract_assigns s) (struct.4.contract_frees s) (struct.4.contract_frees_append s) (struct.4.allocated s) (struct.4.deallocated s) (struct.4.linked_ptr_pred_ctx s) (struct.4.linked_allocated s) (struct.4.linked_deallocated s) (struct.4.assume_requires_ctx s) (struct.4.assert_requires_ctx s) (struct.4.assume_ensures_ctx s) (struct.4.assert_ensures_ctx s) (struct.4.allow_allocate s) (struct.4.allow_deallocate s) v ))

; find_symbols
(declare-fun |mlk_polyvec_permute_bitrev_to_custom::__requires_write_set!0@1| () struct.4)
; find_symbols
(declare-fun |symex::args::1| () (_ BitVec 64))
; set_to true
(assert (= (concat (_ bv2 10) (_ bv0 54)) |symex::args::1|))

; find_symbols
(declare-fun |mlk_polyvec_permute_bitrev_to_custom::__ensures_write_set!0@1| () struct.4)
; find_symbols
(declare-fun |symex::args::2| () (_ BitVec 64))
; set_to true
(assert (= (concat (_ bv3 10) (_ bv0 54)) |symex::args::2|))

; find_symbols
(declare-fun |mlk_polyvec_permute_bitrev_to_custom::__ptr_pred_ctx!0@1| () struct.11)
; find_symbols
(declare-fun |symex::args::3| () (_ BitVec 64))
; set_to true
(assert (= (concat (_ bv4 10) (_ bv0 54)) |symex::args::3|))

; find_symbols
(declare-fun |symex::args::4| () (_ BitVec 64))
; set_to true
(assert (= (concat (_ bv2 10) (_ bv0 54)) |symex::args::4|))

; find_symbols
(declare-fun |symex::args::5| () (_ BitVec 64))
; set_to true
(assert (= (concat (_ bv4 10) (_ bv0 54)) |symex::args::5|))

; find_symbols
(declare-fun |symex::args::6| () (_ BitVec 64))
; set_to true
(assert (= (concat (_ bv3 10) (_ bv0 54)) |symex::args::6|))

; find_symbols
(declare-fun |symex::args::7| () (_ BitVec 64))
; set_to true
(assert (= (concat (_ bv4 10) (_ bv0 54)) |symex::args::7|))

; find_symbols
(declare-fun |mlk_polyvec_permute_bitrev_to_custom::v_wrapper!0@1| () (_ BitVec 64))
; find_symbols
(declare-fun |symex::args::8| () (_ BitVec 64))
; set_to true
(assert (= (concat (_ bv5 10) (_ bv0 54)) |symex::args::8|))

; find_symbols
(declare-fun |symex::args::9| () (_ BitVec 64))
; set_to true
(assert (= (concat (_ bv2 10) (_ bv0 54)) |symex::args::9|))

; find_symbols
(declare-fun |symex_dynamic::dynamic_object$9| () struct.2)
; find_symbols
(declare-fun |symex::args::10| () (_ BitVec 64))
; set_to true
(assert (= (concat (_ bv6 10) (_ bv0 54)) |symex::args::10|))

; find_symbols
(declare-fun |mlk_polyvec_permute_bitrev_to_custom::__contract_write_set!0@1| () struct.4)
; find_symbols
(declare-fun |symex::args::11| () (_ BitVec 64))
; set_to true
(assert (= (concat (_ bv7 10) (_ bv0 54)) |symex::args::11|))

; find_symbols
(declare-fun |symex::args::12| () (_ BitVec 64))
; set_to true
(assert (= (concat (_ bv6 10) (_ bv0 54)) |symex::args::12|))

; find_symbols
(declare-fun |symex::args::13| () (_ BitVec 64))
; set_to true
(assert (= (concat (_ bv7 10) (_ bv0 54)) |symex::args::13|))

; find_symbols
(declare-fun |symex::args::14| () (_ BitVec 64))
; set_to true
(assert (= (concat (_ bv2 10) (_ bv0 54)) |symex::args::14|))

; find_symbols
(declare-fun |symex::args::15| () (_ BitVec 64))
; set_to true
(assert (= (concat (_ bv7 10) (_ bv0 54)) |symex::args::15|))

; find_symbols
(declare-fun |symex::args::16| () (_ BitVec 64))
; set_to true
(assert (= (concat (_ bv6 10) (_ bv0 54)) |symex::args::16|))

; find_symbols
(declare-fun |symex::args::17| () (_ BitVec 64))
; set_to true
(assert (= (concat (_ bv6 10) (_ bv0 54)) |symex::args::17|))

; find_symbols
(declare-fun |symex::args::18| () (_ BitVec 64))
; set_to true
(assert (= (concat (_ bv7 10) (_ bv0 54)) |symex::args::18|))

; find_symbols
(declare-fun |symex::args::19| () (_ BitVec 64))
; set_to true
(assert (= (concat (_ bv2 10) (_ bv0 54)) |symex::args::19|))

; find_symbols
(declare-fun |symex::args::20| () (_ BitVec 64))
; set_to true
(assert (= (concat (_ bv6 10) (_ bv0 54)) |symex::args::20|))

; find_symbols
(declare-fun |symex::args::21| () (_ BitVec 64))
; set_to true
(assert (= (concat (_ bv7 10) (_ bv0 54)) |symex::args::21|))

; find_symbols
(declare-fun |symex::args::22| () (_ BitVec 64))
; set_to true
(assert (= (concat (_ bv4 10) (_ bv0 54)) |symex::args::22|))

; find_symbols
(declare-fun |symex::args::23| () (_ BitVec 64))
; set_to true
(assert (= (concat (_ bv3 10) (_ bv0 54)) |symex::args::23|))

; find_symbols
(declare-fun |symex::args::24| () (_ BitVec 64))
; set_to true
(assert (= (concat (_ bv7 10) (_ bv0 54)) |symex::args::24|))

; find_symbols
(declare-fun |mlk_polyvec_permute_bitrev_to_custom::requires::1::x!0@4#0| () (_ BitVec 32))
; find_symbols
(declare-fun |mlk_polyvec_permute_bitrev_to_custom::requires::1::1::_cbmc_idx35!0@4#0| () (_ BitVec 32))
; convert
; Converting var_no 6 with expr ID of =>
(define-fun B6 () Bool (=> true (or (bvuge |mlk_polyvec_permute_bitrev_to_custom::requires::1::x!0@4#0| (_ bv3 32)) (bvuge |mlk_polyvec_permute_bitrev_to_custom::requires::1::1::_cbmc_idx35!0@4#0| (_ bv256 32)) (not (bvsge (bvmul ((_ zero_extend 32) |mlk_polyvec_permute_bitrev_to_custom::requires::1::x!0@4#0|) (_ bv512 64)) (_ bv1536 64))))))

; find_symbols
(declare-fun |mlk_polyvec_permute_bitrev_to_custom::requires::1::x!0@5#0| () (_ BitVec 32))
; find_symbols
(declare-fun |mlk_polyvec_permute_bitrev_to_custom::requires::1::1::_cbmc_idx35!0@5#0| () (_ BitVec 32))
; convert
; Converting var_no 7 with expr ID of =>
(define-fun B7 () Bool (=> true (or (bvuge |mlk_polyvec_permute_bitrev_to_custom::requires::1::x!0@5#0| (_ bv3 32)) (bvuge |mlk_polyvec_permute_bitrev_to_custom::requires::1::1::_cbmc_idx35!0@5#0| (_ bv256 32)) (not (bvsge (bvadd (bvmul ((_ zero_extend 32) |mlk_polyvec_permute_bitrev_to_custom::requires::1::x!0@5#0|) (_ bv512 64)) (bvmul ((_ zero_extend 32) |mlk_polyvec_permute_bitrev_to_custom::requires::1::1::_cbmc_idx35!0@5#0|) (_ bv2 64))) (_ bv1536 64))))))

; find_symbols
(declare-fun |mlk_polyvec_permute_bitrev_to_custom::requires::1::x!0@10#0| () (_ BitVec 32))
; find_symbols
(declare-fun |mlk_polyvec_permute_bitrev_to_custom::requires::1::1::_cbmc_idx35!0@10#0| () (_ BitVec 32))
; convert
; Converting var_no 8 with expr ID of =>
(define-fun B8 () Bool (=> true (or (bvuge |mlk_polyvec_permute_bitrev_to_custom::requires::1::x!0@10#0| (_ bv3 32)) (bvuge |mlk_polyvec_permute_bitrev_to_custom::requires::1::1::_cbmc_idx35!0@10#0| (_ bv256 32)) (not (bvsge ((_ sign_extend 16) (select (struct.0.coeffs (select array.1 ((_ zero_extend 32) |mlk_polyvec_permute_bitrev_to_custom::requires::1::x!0@10#0|))) ((_ zero_extend 32) |mlk_polyvec_permute_bitrev_to_custom::requires::1::1::_cbmc_idx35!0@10#0|))) (_ bv0 32))) (not (bvsge (bvmul ((_ zero_extend 32) |mlk_polyvec_permute_bitrev_to_custom::requires::1::x!0@10#0|) (_ bv512 64)) (_ bv1536 64))))))

; find_symbols
(declare-fun |mlk_polyvec_permute_bitrev_to_custom::requires::1::x!0@11#0| () (_ BitVec 32))
; find_symbols
(declare-fun |mlk_polyvec_permute_bitrev_to_custom::requires::1::1::_cbmc_idx35!0@11#0| () (_ BitVec 32))
; convert
; Converting var_no 9 with expr ID of =>
(define-fun B9 () Bool (=> true (or (bvuge |mlk_polyvec_permute_bitrev_to_custom::requires::1::x!0@11#0| (_ bv3 32)) (bvuge |mlk_polyvec_permute_bitrev_to_custom::requires::1::1::_cbmc_idx35!0@11#0| (_ bv256 32)) (not (bvsge ((_ sign_extend 16) (select (struct.0.coeffs (select array.1 ((_ zero_extend 32) |mlk_polyvec_permute_bitrev_to_custom::requires::1::x!0@11#0|))) ((_ zero_extend 32) |mlk_polyvec_permute_bitrev_to_custom::requires::1::1::_cbmc_idx35!0@11#0|))) (_ bv0 32))) (not (bvsge (bvadd (bvmul ((_ zero_extend 32) |mlk_polyvec_permute_bitrev_to_custom::requires::1::x!0@11#0|) (_ bv512 64)) (bvmul ((_ zero_extend 32) |mlk_polyvec_permute_bitrev_to_custom::requires::1::1::_cbmc_idx35!0@11#0|) (_ bv2 64))) (_ bv1536 64))))))

; find_symbols
(declare-fun |mlk_polyvec_permute_bitrev_to_custom::ensures::1::x!0@4#0| () (_ BitVec 32))
; find_symbols
(declare-fun |mlk_polyvec_permute_bitrev_to_custom::ensures::1::1::_cbmc_idx36!0@4#0| () (_ BitVec 32))
; convert
; Converting var_no 10 with expr ID of =>
(define-fun B10 () Bool (=> (and true B4) (or (bvuge |mlk_polyvec_permute_bitrev_to_custom::ensures::1::x!0@4#0| (_ bv3 32)) (bvuge |mlk_polyvec_permute_bitrev_to_custom::ensures::1::1::_cbmc_idx36!0@4#0| (_ bv256 32)) (not (bvsge (bvmul ((_ zero_extend 32) |mlk_polyvec_permute_bitrev_to_custom::ensures::1::x!0@4#0|) (_ bv512 64)) (_ bv1536 64))))))

; find_symbols
(declare-fun |mlk_polyvec_permute_bitrev_to_custom::ensures::1::x!0@5#0| () (_ BitVec 32))
; find_symbols
(declare-fun |mlk_polyvec_permute_bitrev_to_custom::ensures::1::1::_cbmc_idx36!0@5#0| () (_ BitVec 32))
; convert
; Converting var_no 11 with expr ID of =>
(define-fun B11 () Bool (=> (and true B4) (or (bvuge |mlk_polyvec_permute_bitrev_to_custom::ensures::1::x!0@5#0| (_ bv3 32)) (bvuge |mlk_polyvec_permute_bitrev_to_custom::ensures::1::1::_cbmc_idx36!0@5#0| (_ bv256 32)) (not (bvsge (bvadd (bvmul ((_ zero_extend 32) |mlk_polyvec_permute_bitrev_to_custom::ensures::1::x!0@5#0|) (_ bv512 64)) (bvmul ((_ zero_extend 32) |mlk_polyvec_permute_bitrev_to_custom::ensures::1::1::_cbmc_idx36!0@5#0|) (_ bv2 64))) (_ bv1536 64))))))

; find_symbols
(declare-fun |mlk_polyvec_permute_bitrev_to_custom::ensures::1::x!0@10#0| () (_ BitVec 32))
; find_symbols
(declare-fun |mlk_polyvec_permute_bitrev_to_custom::ensures::1::1::_cbmc_idx36!0@10#0| () (_ BitVec 32))
; convert
; Converting var_no 12 with expr ID of =>
(define-fun B12 () Bool (=> (and true B4) (or (bvuge |mlk_polyvec_permute_bitrev_to_custom::ensures::1::x!0@10#0| (_ bv3 32)) (bvuge |mlk_polyvec_permute_bitrev_to_custom::ensures::1::1::_cbmc_idx36!0@10#0| (_ bv256 32)) (not (bvsge ((_ sign_extend 16) (select (struct.0.coeffs (select array.1 ((_ zero_extend 32) |mlk_polyvec_permute_bitrev_to_custom::ensures::1::x!0@10#0|))) ((_ zero_extend 32) |mlk_polyvec_permute_bitrev_to_custom::ensures::1::1::_cbmc_idx36!0@10#0|))) (_ bv0 32))) (not (bvsge (bvmul ((_ zero_extend 32) |mlk_polyvec_permute_bitrev_to_custom::ensures::1::x!0@10#0|) (_ bv512 64)) (_ bv1536 64))))))

; find_symbols
(declare-fun |mlk_polyvec_permute_bitrev_to_custom::ensures::1::x!0@11#0| () (_ BitVec 32))
; find_symbols
(declare-fun |mlk_polyvec_permute_bitrev_to_custom::ensures::1::1::_cbmc_idx36!0@11#0| () (_ BitVec 32))
; convert
; Converting var_no 13 with expr ID of =>
(define-fun B13 () Bool (=> (and true B4) (or (bvuge |mlk_polyvec_permute_bitrev_to_custom::ensures::1::x!0@11#0| (_ bv3 32)) (bvuge |mlk_polyvec_permute_bitrev_to_custom::ensures::1::1::_cbmc_idx36!0@11#0| (_ bv256 32)) (not (bvsge ((_ sign_extend 16) (select (struct.0.coeffs (select array.1 ((_ zero_extend 32) |mlk_polyvec_permute_bitrev_to_custom::ensures::1::x!0@11#0|))) ((_ zero_extend 32) |mlk_polyvec_permute_bitrev_to_custom::ensures::1::1::_cbmc_idx36!0@11#0|))) (_ bv0 32))) (not (bvsge (bvadd (bvmul ((_ zero_extend 32) |mlk_polyvec_permute_bitrev_to_custom::ensures::1::x!0@11#0|) (_ bv512 64)) (bvmul ((_ zero_extend 32) |mlk_polyvec_permute_bitrev_to_custom::ensures::1::1::_cbmc_idx36!0@11#0|) (_ bv2 64))) (_ bv1536 64))))))

; find_symbols
(declare-fun |mlk_polyvec_permute_bitrev_to_custom::ensures::1::x!0@12#0| () (_ BitVec 32))
; find_symbols
(declare-fun |mlk_polyvec_permute_bitrev_to_custom::ensures::1::1::_cbmc_idx36!0@12#0| () (_ BitVec 32))
; convert
; Converting var_no 14 with expr ID of =>
(define-fun B14 () Bool (=> (and true B4) (or (bvuge |mlk_polyvec_permute_bitrev_to_custom::ensures::1::x!0@12#0| (_ bv3 32)) (bvuge |mlk_polyvec_permute_bitrev_to_custom::ensures::1::1::_cbmc_idx36!0@12#0| (_ bv256 32)) (and (bvsge ((_ sign_extend 16) (select (struct.0.coeffs (select array.1 ((_ zero_extend 32) |mlk_polyvec_permute_bitrev_to_custom::ensures::1::x!0@12#0|))) ((_ zero_extend 32) |mlk_polyvec_permute_bitrev_to_custom::ensures::1::1::_cbmc_idx36!0@12#0|))) (_ bv0 32)) (not (bvsge ((_ sign_extend 16) (select (struct.0.coeffs (select array.1 ((_ zero_extend 32) |mlk_polyvec_permute_bitrev_to_custom::ensures::1::x!0@12#0|))) ((_ zero_extend 32) |mlk_polyvec_permute_bitrev_to_custom::ensures::1::1::_cbmc_idx36!0@12#0|))) (_ bv3329 32)))))))

; set_to true
(assert (or (not B6) (not B7) (not B8) (not B9) (not B10) (not B11) (not B12) (not B13) (not B14)))

; convert
; Converting var_no 15 with expr ID of not
(define-fun B15 () Bool (not B14))

; convert
; Converting var_no 16 with expr ID of not
(define-fun B16 () Bool (not B6))

; convert
; Converting var_no 17 with expr ID of not
(define-fun B17 () Bool (not B7))

; convert
; Converting var_no 18 with expr ID of not
(define-fun B18 () Bool (not B8))

; convert
; Converting var_no 19 with expr ID of not
(define-fun B19 () Bool (not B9))

; convert
; Converting var_no 20 with expr ID of not
(define-fun B20 () Bool (not B10))

; convert
; Converting var_no 21 with expr ID of not
(define-fun B21 () Bool (not B11))

; convert
; Converting var_no 22 with expr ID of not
(define-fun B22 () Bool (not B12))

; convert
; Converting var_no 23 with expr ID of not
(define-fun B23 () Bool (not B13))

; set_to true
(assert (or B15 B16 B17 B18 B19 B20 B21 B22 B23))

(check-sat)


(exit)
; end of SMT2 file
